Route #1: 10 19 1 11 27 12 2 13 20 28 32 33 45 46 58 72 79 65 64 57 44 56 49 55 70 69 62 48 38 31 37 47 61 76 75 82 93 83 84 94 95 96 91 77 63 71 78 85 92 86 87 97 98 99 88 81 89 100 90 74 68 73 67 80 66 59 50 51 52 60 53 42 54 43 36 26 30 29 41 40 39 35 34 22 14 21 3 4 5 6 23 24 15 16 25 17 7 8 9 18
Cost 44573
